
Gurobi 11.0.3 (linux64) logging started Mon Nov 25 00:18:20 2024

Set parameter LogFile to value "/home/yihong/Coding/OR_SUC/SUC_results_bigM100000_thread4/case24_ieee_rts_theta0.5_epsilon0.025_gurobi_seed1240000_num_gen100_N_WDR100_load_scaling_factor1_exact_T20quadra_cost.txt"
Set parameter TimeLimit to value 3600
Gurobi Optimizer version 11.0.3 build v11.0.3rc0 (linux64 - "Ubuntu 20.04.6 LTS")

CPU model: AMD EPYC 7532 32-Core Processor, instruction set [SSE2|AVX|AVX2]
Thread count: 64 physical cores, 128 logical processors, using up to 4 threads

Optimize a model with 43303 rows, 25001 columns and 593882 nonzeros
Model fingerprint: 0xcc7ddc52
Model has 2000 quadratic constraints
Variable types: 22901 continuous, 2100 integer (2100 binary)
Coefficient statistics:
  Matrix range     [3e-04, 1e+05]
  QMatrix range    [2e-03, 8e-03]
  QLMatrix range   [3e-02, 6e+01]
  Objective range  [1e+00, 1e+00]
  Bounds range     [1e+00, 1e+00]
  RHS range        [1e+00, 1e+05]
Presolve removed 35101 rows and 10861 columns
Presolve time: 0.19s
Presolved: 8202 rows, 14140 columns, 51857 nonzeros
Presolved model has 2000 quadratic constraint(s)
Variable types: 12084 continuous, 2056 integer (2056 binary)

Root relaxation: objective 6.363643e+04, 7175 iterations, 0.15 seconds (0.21 work units)

    Nodes    |    Current Node    |     Objective Bounds      |     Work
 Expl Unexpl |  Obj  Depth IntInf | Incumbent    BestBd   Gap | It/Node Time

     0     0 63636.4312    0    5          - 63636.4312      -     -    0s
     0     0 336711.959    0  618          - 336711.959      -     -    0s
     0     0 339037.727    0  609          - 339037.727      -     -    0s
     0     0 551487.477    0  565          - 551487.477      -     -    1s
     0     0 551606.189    0  374          - 551606.189      -     -    1s
     0     0 552023.320    0  251          - 552023.320      -     -    1s
     0     0 552033.637    0  252          - 552033.637      -     -    1s
     0     0 552374.046    0  251          - 552374.046      -     -    1s
     0     0 552374.988    0  251          - 552374.988      -     -    1s
     0     0 552375.177    0  251          - 552375.177      -     -    1s
     0     2 552375.177    0  251          - 552375.177      -     -    1s
   234   269 552717.937   44  178          - 552501.384      -  35.5    5s
H  444   254                    552765.01373 552501.384  0.05%  26.0    5s
*  444   254             119    552765.01373 552501.384  0.05%  26.0    5s

Cutting planes:
  Gomory: 1
  Implied bound: 348
  MIR: 65
  Flow cover: 140

Explored 468 nodes (32016 simplex iterations) in 6.46 seconds (8.94 work units)
Thread count was 4 (of 128 available processors)

Solution count 2: 552765 552765 

Optimal solution found (tolerance 1.00e-03)
Warning: max constraint violation (7.0244e-07) exceeds tolerance
Best objective 5.527650137362e+05, best bound 5.525013843490e+05, gap 0.0477%
